param N := 3;

param: Bought :=
1 100
2 150
3 80;

param: BuyPrice :=
1 50
2 40
3 30;

param: CurrentPrice :=
1 60
2 35
3 32;

param: FuturePrice :=
1 65
2 44
3 34;

param TransactionRate := 1.0;
param TaxRate := 15.0;
param K := 5000;
